data/dat/R034.dat
/* Cplex Data generated on 2017-12-15 */

k = 6;

b = 3;

AtomicConstraints = {
	 <2, 1>,
	 <2, 3>,
	 }; 

SoftAtomicConstraints = {
	 <1, 3>,
	 <4, 5>,
	 <5, 6>,
	 }; 

DisjunctiveConstraints = {
	 <5, 4, 5, 6>,
	 }; 

DirectSuccessors = {
	 }; 

