data/dzn/R034.dzn
k = 6;
b = 3;
AtomicConstraints =  [|
2, 1|
	2, 3|];
DisjunctiveConstraints =  [|5, 4, 5, 6|];
SoftAtomicConstraints =  [|
1, 3|
4, 5|
5, 6|];
DirectSuccessors =  [];
